sat
(:added-eqs                       28888
 :arith-eq-adapter                1032
 :arith-bound-propagations-lp     1250
 :arith-branch                    7
 :arith-conflicts                 2339
 :arith-cube-calls                1
 :arith-diseq                     14908
 :arith-fixed-eqs                 4123
 :arith-gcd-calls                 139
 :arith-grobner-calls             354
 :arith-grobner-conflicts         54
 :arith-horner-calls              116
 :arith-horner-conflicts          1
 :arith-horner-cross-nested-forms 10605
 :arith-lower                     18378
 :arith-make-feasible             10615
 :arith-max-columns               820
 :arith-max-rows                  378
 :arith-nla-add-bounds            121
 :arith-nla-lemmas                1199
 :arith-nla-propagate-bounds      731
 :arith-nla-propagate-eq          11182
 :arith-nra-calls                 36
 :arith-offset-eqs                4992
 :arith-patches                   139
 :arith-patches-success           128
 :arith-upper                     26622
 :binary-propagations             67209
 :conflicts                       509
 :decisions                       122838
 :del-clause                      2794
 :elim-unconstrained              94
 :final-checks                    799
 :max-memory                      28.90
 :memory                          19.11
 :minimized-lits                  4305
 :mk-bool-var                     6618
 :mk-clause                       4714
 :mk-clause-binary                7363
 :nlsat-conflicts                 3687
 :nlsat-decisions                 47
 :nlsat-propagations              204711
 :nlsat-stages                    86911
 :num-allocs                      882444958
 :num-checks                      1
 :propagations                    107607
 :restarts                        4
 :rlimit-count                    3688291
 :time                            1.28
 :total-time                      1.30)
